data;
param n:=100;
param w:=1 -260 2 257 3 351 4 -272 5 240 6 -7 7 308 8 -444 9 377 10 402 11 -311 12 481 13 -475 14 467 15 -432 16 216 17 336 18 -156 19 -127 20 -482 21 387 22 226 23 148 24 473 25 -265 26 233 27 456 28 322 29 -488 30 -230 31 -413 32 319 33 424 34 -476 35 -51 36 -340 37 421 38 -405 39 280 40 -401 41 -124 42 -502 43 449 44 -344 45 -42 46 -223 47 -462 48 -388 49 -150 50 -247 51 422 52 -220 53 337 54 -22 55 -427 56 299 57 -153 58 219 59 -183 60 -451 61 -186 62 162 63 402 64 -123 65 -344 66 412 67 -352 68 262 69 463 70 -95 71 237 72 217 73 -154 74 38 75 -89 76 -159 77 300 78 -75 79 -390 80 447 81 102 82 62 83 -406 84 -510 85 -113 86 326 87 78 88 -499 89 333 90 208 91 367 92 -179 93 -4 94 213 95 430 96 179 97 -187 98 10 99 -199 100 -61;
